41 62 
57 83 
84 51 
51 20 
22 47 
71 19 
9 22 
43 47 
34 19 
28 91 
36 87 
8 79 
34 4 
45 85 
37 26 
48 78 
88 57 
14 24 
9 65 
44 83 
64 68 
2 26 
90 45 
73 76 
64 53 
67 52 
92 27 
83 78 
31 28 
15 20 
55 15 
99 95 
73 65 
72 82 
82 68 
65 47 
36 19 
73 27 
16 98 
3 33 
4 23 
85 96 
50 69 
27 82 
49 42 
2 4 
58 53 
52 31 
70 24 
65 53 
